7,8	0,0	9,3	7,3	0,0	0,0	0,0	0,0	0,0	7,5
17,7	19,3	0,0	6,4	5,6	0,0	0,0	20,0	0,0	0,0
0,0	0,0	17,1	0,0	12,4	16,4	0,0	0,0	10,8	0,0
8,4	0,0	16,5	0,0	0,0	0,0	7,3	0,0	0,0	0,0
0,0	9,6	0,0	19,7	12,4	0,0	0,0	12,2	0,0	0,0
0,0	15,1	11,1	0,0	7,5	8,8	0,0	0,0	12,8	0,0
0,0	16,8	0,0	7,9	0,0	0,0	5,3	0,0	0,0	8,4
7,3	0,0	12,5	0,0	0,0	0,0	0,0	0,0	0,0	16,2
0,0	15,9	0,0	13,3	14,0	0,0	0,0	15,8	0,0	0,0
0,0	0,0	16,5	0,0	0,0	8,4	16,6	0,0	0,0	13,3
0,0	18,7	0,0	0,0	8,0	0,0	9,2	0,0	5,3	19,2
13,5	0,0	16,2	0,0	9,6	0,0	8,7	9,8	8,8	0,0
0,0	9,7	0,0	0,0	0,0	17,6	0,0	14,3	10,4	6,0
12,4	11,2	15,9	0,0	0,0	5,5	0,0	10,2	5,3	0,0
8,8	0,0	16,5	0,0	16,4	19,6	6,1	17,7	0,0	0,0
0,0	12,2	0,0	14,0	0,0	12,9	0,0	13,4	0,0	0,0
8,6	0,0	6,6	9,9	14,2	0,0	0,0	17,6	0,0	0,0
0,0	0,0	15,4	0,0	0,0	6,1	5,7	0,0	16,3	18,9
18,3	0,0	0,0	18,8	9,5	16,1	12,5	8,9	0,0	17,9
0,0	8,6	0,0	19,9	0,0	0,0	19,5	0,0	16,9	6,8
									
3,3	4,5	4,5	4,5	4,8	4,6	4,4	4,8	4,4	4,0
